[VALIDATOR STDOUT]
Checking plan: /home/fjl2401/Safety-gen/benchmark_problems/rovers/optic_results/rover2_waypoint7_objective3_camera3_goal3_seed7001.plan
Plan executed successfully - checking goal
Goal not satisfied
Plan invalid


Failed plans:
 /home/fjl2401/Safety-gen/benchmark_problems/rovers/optic_results/rover2_waypoint7_objective3_camera3_goal3_seed7001.plan
